27 58 105 150 154 178 113 55 130 25 121 52 62 42 87 165 13 114 117 124 80 170 14 65 59 181 46 94 140 9 173 64 33 83 128 7 152 189 131 20 195 50 73 133 37 41 89 148 60 193 54 177 19 115 91 2 36 103 174 180 31 32 17 6 158 45 85 191 75 120 139 66 68 162 112 171 153 90 76 149 123 5 156 197 70 67 44 110 0 4 16 138 157 196 78 30 188 141 146 190 102 164 97 166 125 57 147 82 95 24 143 47 61 144 176 186 11 161 12 15 34 43 142 172 116 86 79 155 49 129 175 88 48 169 53 119 104 100 185 127 22 26 84 29 167 69 93 126 137 199 122 192 107 198 21 184 28 8 145 194 109 51 63 3 99 1 77 159 71 74 108 38 92 151 35 23 40 39 187 96 10 134 135 106 56 182 101 118 18 163 132 183 179 168 136 81 160 111 98 72